;; translated from ./ctigar/id_build.c.vmt
;; original benchmark available at: https://es-static.fbk.eu/people/griggio/ic3ia/index.html
;; author: Alberto Griggio <griggio@fbk.eu>
(set-logic HORN)
(declare-fun state (Bool Bool Bool Bool Int Int Int Int Int) Bool)
(assert (forall ((|.s.0| Bool) (|.s.2| Bool) (|.s.1| Bool) (|.s.0.next| Bool) (|.s.1.next| Bool) (|.s.2.next| Bool) (|.s.3.next| Bool) (|main.i.next| Int) (|main.i| Int) (|main.nlen.next| Int) (|main.nlen| Int) (|main.j.next| Int) (|main.j| Int) (|main.length.next| Int) (|main.length| Int) (|main.offset.next| Int) (|main.offset| Int) (|.s.3| Bool)) (=> (let ((.def_17 (not .s.3)))
(let ((.def_14 (not .s.2)))
(let ((.def_10 (not .s.1)))
(let ((.def_12 (and .def_10 .s.0)))
(let ((.def_15 (and .def_12 .def_14)))
(let ((.def_18 (and .def_15 .def_17)))
.def_18)))))) (state |.s.1| |.s.0| |.s.2| |.s.3| |main.offset| |main.length| |main.j| |main.nlen| |main.i|))))
(assert (forall ((|.s.0| Bool) (|.s.2| Bool) (|.s.1| Bool) (|.s.0.next| Bool) (|.s.1.next| Bool) (|.s.2.next| Bool) (|.s.3.next| Bool) (|main.i.next| Int) (|main.i| Int) (|main.nlen.next| Int) (|main.nlen| Int) (|main.j.next| Int) (|main.j| Int) (|main.length.next| Int) (|main.length| Int) (|main.offset.next| Int) (|main.offset| Int) (|.s.3| Bool)) (=> (and (state |.s.1| |.s.0| |.s.2| |.s.3| |main.offset| |main.length| |main.j| |main.nlen| |main.i|) (let ((.def_55 (not .s.0)))
(let ((.def_10 (not .s.1)))
(let ((.def_85 (and .def_10 .def_55)))
(let ((.def_14 (not .s.2)))
(let ((.def_131 (and .def_14 .def_85)))
(let ((.def_17 (not .s.3)))
(let ((.def_249 (and .def_17 .def_131)))
(let ((.def_250 (not .def_249)))
(let ((.def_45 (not .s.0.next)))
(let ((.def_43 (not .s.1.next)))
(let ((.def_46 (and .def_43 .def_45)))
(let ((.def_41 (not .s.2.next)))
(let ((.def_47 (and .def_41 .def_46)))
(let ((.def_39 (not .s.3.next)))
(let ((.def_48 (and .def_39 .def_47)))
(let ((.def_37 (= main.i main.i.next)))
(let ((.def_49 (and .def_37 .def_48)))
(let ((.def_34 (= main.nlen main.nlen.next)))
(let ((.def_50 (and .def_34 .def_49)))
(let ((.def_31 (= main.j main.j.next)))
(let ((.def_51 (and .def_31 .def_50)))
(let ((.def_28 (= main.length main.length.next)))
(let ((.def_52 (and .def_28 .def_51)))
(let ((.def_25 (= main.offset main.offset.next)))
(let ((.def_53 (and .def_25 .def_52)))
(let ((.def_251 (or .def_53 .def_250)))
(let ((.def_242 (= main.i.next 0)))
(let ((.def_60 (and .s.1.next .def_45)))
(let ((.def_61 (and .def_41 .def_60)))
(let ((.def_62 (and .def_39 .def_61)))
(let ((.def_243 (and .def_62 .def_242)))
(let ((.def_244 (and .def_34 .def_243)))
(let ((.def_245 (and .def_31 .def_244)))
(let ((.def_246 (and .def_28 .def_245)))
(let ((.def_247 (and .def_25 .def_246)))
(let ((.def_12 (and .def_10 .s.0)))
(let ((.def_15 (and .def_12 .def_14)))
(let ((.def_18 (and .def_15 .def_17)))
(let ((.def_241 (not .def_18)))
(let ((.def_248 (or .def_241 .def_247)))
(let ((.def_252 (and .def_248 .def_251)))
(let ((.def_100 (and .s.1.next .s.0.next)))
(let ((.def_160 (and .s.2.next .def_100)))
(let ((.def_234 (and .s.3.next .def_160)))
(let ((.def_235 (and .def_37 .def_234)))
(let ((.def_236 (and .def_34 .def_235)))
(let ((.def_237 (and .def_31 .def_236)))
(let ((.def_238 (and .def_28 .def_237)))
(let ((.def_239 (and .def_25 .def_238)))
(let ((.def_221 (<= main.nlen main.i)))
(let ((.def_56 (and .s.1 .def_55)))
(let ((.def_109 (and .def_14 .def_56)))
(let ((.def_220 (and .def_17 .def_109)))
(let ((.def_232 (and .def_220 .def_221)))
(let ((.def_233 (not .def_232)))
(let ((.def_240 (or .def_233 .def_239)))
(let ((.def_253 (and .def_240 .def_252)))
(let ((.def_101 (and .def_41 .def_100)))
(let ((.def_225 (and .def_39 .def_101)))
(let ((.def_226 (and .def_37 .def_225)))
(let ((.def_227 (and .def_34 .def_226)))
(let ((.def_228 (and .def_31 .def_227)))
(let ((.def_229 (and .def_28 .def_228)))
(let ((.def_230 (and .def_25 .def_229)))
(let ((.def_222 (not .def_221)))
(let ((.def_223 (and .def_220 .def_222)))
(let ((.def_224 (not .def_223)))
(let ((.def_231 (or .def_224 .def_230)))
(let ((.def_254 (and .def_231 .def_253)))
(let ((.def_213 (= main.j.next 0)))
(let ((.def_89 (and .s.2.next .def_46)))
(let ((.def_112 (and .def_39 .def_89)))
(let ((.def_214 (and .def_112 .def_213)))
(let ((.def_215 (and .def_37 .def_214)))
(let ((.def_216 (and .def_34 .def_215)))
(let ((.def_217 (and .def_28 .def_216)))
(let ((.def_218 (and .def_25 .def_217)))
(let ((.def_19 (and .s.1 .s.0)))
(let ((.def_97 (and .def_14 .def_19)))
(let ((.def_210 (and .def_17 .def_97)))
(let ((.def_211 (not .def_210)))
(let ((.def_219 (or .def_211 .def_218)))
(let ((.def_255 (and .def_219 .def_254)))
(let ((.def_134 (and .def_43 .s.0.next)))
(let ((.def_193 (and .s.2.next .def_134)))
(let ((.def_203 (and .s.3.next .def_193)))
(let ((.def_204 (and .def_37 .def_203)))
(let ((.def_205 (and .def_34 .def_204)))
(let ((.def_206 (and .def_31 .def_205)))
(let ((.def_207 (and .def_28 .def_206)))
(let ((.def_208 (and .def_25 .def_207)))
(let ((.def_189 (<= 8 main.j)))
(let ((.def_86 (and .s.2 .def_85)))
(let ((.def_187 (and .def_17 .def_86)))
(let ((.def_201 (and .def_187 .def_189)))
(let ((.def_202 (not .def_201)))
(let ((.def_209 (or .def_202 .def_208)))
(let ((.def_256 (and .def_209 .def_255)))
(let ((.def_194 (and .def_39 .def_193)))
(let ((.def_195 (and .def_37 .def_194)))
(let ((.def_196 (and .def_34 .def_195)))
(let ((.def_197 (and .def_31 .def_196)))
(let ((.def_198 (and .def_28 .def_197)))
(let ((.def_199 (and .def_25 .def_198)))
(let ((.def_190 (not .def_189)))
(let ((.def_191 (and .def_187 .def_190)))
(let ((.def_192 (not .def_191)))
(let ((.def_200 (or .def_192 .def_199)))
(let ((.def_257 (and .def_200 .def_256)))
(let ((.def_171 (* (- 1) main.i)))
(let ((.def_172 (+ main.nlen .def_171)))
(let ((.def_173 (<= 1 .def_172)))
(let ((.def_183 (not .def_173)))
(let ((.def_69 (and .def_12 .s.2)))
(let ((.def_168 (and .def_17 .def_69)))
(let ((.def_184 (and .def_168 .def_183)))
(let ((.def_185 (not .def_184)))
(let ((.def_90 (and .s.3.next .def_89)))
(let ((.def_91 (and .def_37 .def_90)))
(let ((.def_92 (and .def_34 .def_91)))
(let ((.def_93 (and .def_31 .def_92)))
(let ((.def_94 (and .def_28 .def_93)))
(let ((.def_95 (and .def_25 .def_94)))
(let ((.def_186 (or .def_95 .def_185)))
(let ((.def_258 (and .def_186 .def_257)))
(let ((.def_77 (and .s.2.next .def_60)))
(let ((.def_176 (and .def_39 .def_77)))
(let ((.def_177 (and .def_37 .def_176)))
(let ((.def_178 (and .def_34 .def_177)))
(let ((.def_179 (and .def_31 .def_178)))
(let ((.def_180 (and .def_28 .def_179)))
(let ((.def_181 (and .def_25 .def_180)))
(let ((.def_174 (and .def_168 .def_173)))
(let ((.def_175 (not .def_174)))
(let ((.def_182 (or .def_175 .def_181)))
(let ((.def_259 (and .def_182 .def_258)))
(let ((.def_161 (and .def_39 .def_160)))
(let ((.def_162 (and .def_37 .def_161)))
(let ((.def_163 (and .def_34 .def_162)))
(let ((.def_164 (and .def_31 .def_163)))
(let ((.def_165 (and .def_28 .def_164)))
(let ((.def_166 (and .def_25 .def_165)))
(let ((.def_57 (and .s.2 .def_56)))
(let ((.def_158 (and .def_17 .def_57)))
(let ((.def_159 (not .def_158)))
(let ((.def_167 (or .def_159 .def_166)))
(let ((.def_260 (and .def_167 .def_259)))
(let ((.def_144 (<= main.i (- 1))))
(let ((.def_20 (and .s.2 .def_19)))
(let ((.def_143 (and .def_17 .def_20)))
(let ((.def_155 (and .def_143 .def_144)))
(let ((.def_156 (not .def_155)))
(let ((.def_102 (and .s.3.next .def_101)))
(let ((.def_103 (and .def_37 .def_102)))
(let ((.def_104 (and .def_34 .def_103)))
(let ((.def_105 (and .def_31 .def_104)))
(let ((.def_106 (and .def_28 .def_105)))
(let ((.def_107 (and .def_25 .def_106)))
(let ((.def_157 (or .def_107 .def_156)))
(let ((.def_261 (and .def_157 .def_260)))
(let ((.def_148 (and .s.3.next .def_47)))
(let ((.def_149 (and .def_37 .def_148)))
(let ((.def_150 (and .def_34 .def_149)))
(let ((.def_151 (and .def_31 .def_150)))
(let ((.def_152 (and .def_28 .def_151)))
(let ((.def_153 (and .def_25 .def_152)))
(let ((.def_145 (not .def_144)))
(let ((.def_146 (and .def_143 .def_145)))
(let ((.def_147 (not .def_146)))
(let ((.def_154 (or .def_147 .def_153)))
(let ((.def_262 (and .def_154 .def_261)))
(let ((.def_135 (and .def_41 .def_134)))
(let ((.def_136 (and .s.3.next .def_135)))
(let ((.def_137 (and .def_37 .def_136)))
(let ((.def_138 (and .def_34 .def_137)))
(let ((.def_139 (and .def_31 .def_138)))
(let ((.def_140 (and .def_28 .def_139)))
(let ((.def_141 (and .def_25 .def_140)))
(let ((.def_132 (and .s.3 .def_131)))
(let ((.def_133 (not .def_132)))
(let ((.def_142 (or .def_133 .def_141)))
(let ((.def_263 (and .def_142 .def_262)))
(let ((.def_124 (and .s.3.next .def_61)))
(let ((.def_121 (* (- 1) main.j.next)))
(let ((.def_122 (+ main.j .def_121)))
(let ((.def_123 (= .def_122 (- 1))))
(let ((.def_125 (and .def_123 .def_124)))
(let ((.def_126 (and .def_37 .def_125)))
(let ((.def_127 (and .def_34 .def_126)))
(let ((.def_128 (and .def_28 .def_127)))
(let ((.def_129 (and .def_25 .def_128)))
(let ((.def_119 (and .def_15 .s.3)))
(let ((.def_120 (not .def_119)))
(let ((.def_130 (or .def_120 .def_129)))
(let ((.def_264 (and .def_130 .def_263)))
(let ((.def_113 (and .def_37 .def_112)))
(let ((.def_114 (and .def_34 .def_113)))
(let ((.def_115 (and .def_31 .def_114)))
(let ((.def_116 (and .def_28 .def_115)))
(let ((.def_117 (and .def_25 .def_116)))
(let ((.def_110 (and .s.3 .def_109)))
(let ((.def_111 (not .def_110)))
(let ((.def_118 (or .def_111 .def_117)))
(let ((.def_265 (and .def_118 .def_264)))
(let ((.def_98 (and .s.3 .def_97)))
(let ((.def_99 (not .def_98)))
(let ((.def_108 (or .def_99 .def_107)))
(let ((.def_266 (and .def_108 .def_265)))
(let ((.def_87 (and .s.3 .def_86)))
(let ((.def_88 (not .def_87)))
(let ((.def_96 (or .def_88 .def_95)))
(let ((.def_267 (and .def_96 .def_266)))
(let ((.def_78 (and .s.3.next .def_77)))
(let ((.def_74 (* (- 1) main.i.next)))
(let ((.def_75 (+ main.i .def_74)))
(let ((.def_76 (= .def_75 (- 1))))
(let ((.def_79 (and .def_76 .def_78)))
(let ((.def_80 (and .def_34 .def_79)))
(let ((.def_81 (and .def_31 .def_80)))
(let ((.def_82 (and .def_28 .def_81)))
(let ((.def_83 (and .def_25 .def_82)))
(let ((.def_70 (and .s.3 .def_69)))
(let ((.def_71 (not .def_70)))
(let ((.def_84 (or .def_71 .def_83)))
(let ((.def_268 (and .def_84 .def_267)))
(let ((.def_63 (and .def_37 .def_62)))
(let ((.def_64 (and .def_34 .def_63)))
(let ((.def_65 (and .def_31 .def_64)))
(let ((.def_66 (and .def_28 .def_65)))
(let ((.def_67 (and .def_25 .def_66)))
(let ((.def_58 (and .s.3 .def_57)))
(let ((.def_59 (not .def_58)))
(let ((.def_68 (or .def_59 .def_67)))
(let ((.def_269 (and .def_68 .def_268)))
(let ((.def_21 (and .s.3 .def_20)))
(let ((.def_22 (not .def_21)))
(let ((.def_54 (or .def_22 .def_53)))
(let ((.def_270 (and .def_54 .def_269)))
.def_270))))))))))))))))))))))))))))))))))))))))))))))))))))))))))))))))))))))))))))))))))))))))))))))))))))))))))))))))))))))))))))))))))))))))))))))))))))))))))))))))))))))))))))))))))))))))))))))))))))))))))))))))))))))))))))))))))))))))))))))) (state |.s.1.next| |.s.0.next| |.s.2.next| |.s.3.next| |main.offset.next| |main.length.next| |main.j.next| |main.nlen.next| |main.i.next|))))
(assert (forall ((|.s.0| Bool) (|.s.2| Bool) (|.s.1| Bool) (|.s.0.next| Bool) (|.s.1.next| Bool) (|.s.2.next| Bool) (|.s.3.next| Bool) (|main.i.next| Int) (|main.i| Int) (|main.nlen.next| Int) (|main.nlen| Int) (|main.j.next| Int) (|main.j| Int) (|main.length.next| Int) (|main.length| Int) (|main.offset.next| Int) (|main.offset| Int) (|.s.3| Bool)) (=> (state |.s.1| |.s.0| |.s.2| |.s.3| |main.offset| |main.length| |main.j| |main.nlen| |main.i|) (let ((.def_19 (and .s.1 .s.0)))
(let ((.def_14 (not .s.2)))
(let ((.def_97 (and .def_14 .def_19)))
(let ((.def_98 (and .s.3 .def_97)))
(let ((.def_99 (not .def_98)))
(let ((.def_55 (not .s.0)))
(let ((.def_10 (not .s.1)))
(let ((.def_85 (and .def_10 .def_55)))
(let ((.def_86 (and .s.2 .def_85)))
(let ((.def_87 (and .s.3 .def_86)))
(let ((.def_88 (not .def_87)))
(let ((.def_271 (and .def_88 .def_99)))
.def_271)))))))))))))))
(check-sat)
